[[51, 12, 33, 43, 10, 9, 8, 41, 19, 45, 15, 5, 6, 4], [25, 46, 48, 24, 38, 40, 37, 39, 34, 44, 35, 36, 49, 32, 22, 31, 18, 3, 17, 21, 42, 7, 2], [30, 23, 20, 50, 16, 29, 47, 26, 28, 27, 13, 14, 52, 11]]